100
32
31
18
4
12
17
12
6
14
1
7
27
9
27
32
24
10
11
8
30
31
2
4
14
15
22
12
20
2
1
13
19
22
20
28
16
16
15
15
10
16
26
19
15
5
2
11
20
26
24
30
29
4
16
16
6
8
4
4
27
10
23
18
2
32
21
10
29
7
1
20
9
4
18
21
1
32
21
1
21
1
2
31
2
2
2
18
8
18
3
3
29
32
3
5
7
6
25
6
1
3